11
0 64 11 15 95 78 99 33 70 90 68 
96 0 12 14 30 29 29 15 55 69 61 
77 4 0 43 43 54 46 28 54 37 52 
78 66 12 0 68 34 58 71 35 41 65 
83 5 65 25 0 43 76 47 82 78 8 
80 13 49 95 84 0 45 70 41 66 70 
30 3 66 51 23 91 0 99 71 80 87 
93 44 57 43 5 40 14 0 72 98 17 
100 71 17 3 26 93 72 19 0 20 12 
60 69 93 14 86 78 97 49 70 0 83 
22 94 51 3 45 5 6 23 75 93 0 
